60
895
4
16
96
65
31
0 4
0 5
0 6
0 8
0 9
0 10
0 11
0 12
0 13
0 14
0 15
0 17
0 20
0 21
0 23
0 25
0 26
0 27
0 28
0 30
0 34
0 40
0 43
0 44
0 47
0 48
0 49
0 53
0 58
1 2
1 7
1 8
1 10
1 11
1 15
1 16
1 17
1 19
1 22
1 26
1 27
1 28
1 31
1 33
1 35
1 36
1 40
1 41
1 44
1 48
1 49
1 50
1 51
1 53
1 56
2 3
2 4
2 5
2 6
2 7
2 8
2 9
2 11
2 15
2 16
2 17
2 22
2 23
2 29
2 30
2 31
2 32
2 33
2 34
2 36
2 38
2 39
2 40
2 43
2 46
2 48
2 52
2 53
2 54
2 55
2 56
2 58
3 5
3 8
3 9
3 10
3 11
3 14
3 16
3 17
3 20
3 21
3 25
3 26
3 27
3 28
3 30
3 31
3 32
3 33
3 34
3 38
3 40
3 41
3 42
3 45
3 49
3 53
3 55
3 56
3 57
3 58
4 9
4 11
4 13
4 14
4 17
4 20
4 21
4 22
4 24
4 25
4 26
4 28
4 29
4 30
4 32
4 33
4 34
4 36
4 39
4 44
4 47
4 48
4 51
4 52
4 53
4 54
4 55
4 56
4 57
5 6
5 7
5 8
5 10
5 11
5 12
5 18
5 23
5 24
5 25
5 26
5 27
5 29
5 32
5 35
5 37
5 38
5 40
5 43
5 45
5 47
5 49
5 50
5 54
5 55
5 56
5 57
5 58
5 59
6 8
6 9
6 10
6 12
6 19
6 20
6 21
6 22
6 24
6 27
6 28
6 29
6 32
6 34
6 35
6 39
6 40
6 41
6 43
6 46
6 48
6 52
6 55
6 56
7 9
7 10
7 12
7 13
7 14
7 15
7 16
7 17
7 22
7 23
7 26
7 28
7 29
7 30
7 31
7 35
7 36
7 37
7 38
7 44
7 47
7 48
7 49
7 55
7 57
7 59
8 11
8 13
8 14
8 20
8 21
8 25
8 30
8 31
8 33
8 36
8 37
8 40
8 41
8 43
8 44
8 47
8 49
8 50
8 51
8 52
8 54
8 55
8 56
9 10
9 11
9 13
9 14
9 15
9 17
9 18
9 19
9 20
9 22
9 23
9 26
9 29
9 31
9 32
9 35
9 36
9 37
9 38
9 39
9 40
9 43
9 51
9 52
9 53
9 54
9 59
10 11
10 13
10 14
10 17
10 20
10 22
10 27
10 30
10 34
10 37
10 39
10 43
10 45
10 51
10 52
10 53
10 56
10 57
10 59
11 13
11 14
11 15
11 16
11 18
11 19
11 20
11 21
11 24
11 25
11 26
11 29
11 30
11 35
11 36
11 38
11 44
11 45
11 47
11 49
11 53
11 55
11 56
11 59
12 13
12 14
12 17
12 19
12 20
12 26
12 27
12 28
12 29
12 30
12 31
12 32
12 33
12 36
12 37
12 39
12 40
12 41
12 42
12 43
12 48
12 51
12 52
12 53
12 55
12 56
12 57
13 15
13 18
13 19
13 21
13 25
13 27
13 28
13 30
13 31
13 32
13 33
13 35
13 36
13 37
13 38
13 39
13 41
13 42
13 43
13 44
13 45
13 47
13 49
13 50
13 51
13 54
13 56
13 57
14 16
14 17
14 18
14 19
14 21
14 22
14 23
14 25
14 29
14 30
14 31
14 34
14 36
14 39
14 40
14 41
14 42
14 45
14 47
14 48
14 53
14 54
14 56
14 59
15 18
15 20
15 22
15 27
15 28
15 29
15 31
15 35
15 36
15 37
15 38
15 39
15 40
15 41
15 44
15 47
15 49
15 51
15 52
15 54
15 56
15 58
16 18
16 19
16 20
16 21
16 24
16 25
16 26
16 28
16 32
16 42
16 44
16 46
16 47
16 52
16 53
16 54
16 57
16 58
17 18
17 20
17 21
17 23
17 25
17 26
17 28
17 29
17 31
17 32
17 34
17 36
17 37
17 39
17 40
17 41
17 42
17 46
17 47
17 48
17 49
17 52
17 54
17 57
18 19
18 22
18 23
18 28
18 30
18 32
18 33
18 36
18 38
18 44
18 45
18 46
18 47
18 49
18 52
18 53
18 54
18 55
18 59
19 20
19 23
19 24
19 26
19 28
19 29
19 31
19 32
19 33
19 34
19 35
19 36
19 38
19 39
19 42
19 44
19 49
19 50
19 51
19 53
19 55
19 57
20 21
20 22
20 27
20 28
20 36
20 37
20 39
20 41
20 42
20 43
20 44
20 45
20 46
20 48
20 49
20 52
20 54
20 55
20 57
20 58
20 59
21 22
21 23
21 27
21 30
21 31
21 34
21 36
21 39
21 43
21 46
21 47
21 48
21 49
21 51
21 53
21 57
22 24
22 27
22 28
22 29
22 30
22 33
22 35
22 36
22 37
22 41
22 44
22 45
22 47
22 49
22 53
22 55
22 57
22 58
23 29
23 33
23 34
23 36
23 38
23 39
23 40
23 43
23 46
23 50
23 52
23 53
23 55
23 56
23 58
24 26
24 28
24 29
24 31
24 32
24 33
24 38
24 39
24 40
24 41
24 43
24 44
24 45
24 50
24 52
24 54
24 55
24 56
25 27
25 30
25 31
25 34
25 35
25 39
25 41
25 50
25 51
25 52
25 53
26 27
26 28
26 29
26 31
26 32
26 33
26 34
26 35
26 36
26 43
26 45
26 47
26 49
26 50
26 51
26 54
26 56
27 31
27 32
27 33
27 34
27 35
27 36
27 38
27 39
27 41
27 44
27 45
27 46
27 47
27 49
27 50
27 54
27 56
28 30
28 32
28 33
28 36
28 37
28 39
28 41
28 42
28 44
28 45
28 46
28 48
28 49
28 53
28 54
28 55
28 56
28 57
28 58
29 32
29 35
29 38
29 39
29 41
29 42
29 43
29 44
29 45
29 47
29 48
29 50
29 51
29 53
29 54
29 57
29 59
30 33
30 35
30 36
30 38
30 39
30 40
30 41
30 42
30 43
30 47
30 48
30 49
30 51
30 52
30 53
30 56
30 57
31 32
31 35
31 36
31 37
31 41
31 42
31 43
31 44
31 45
31 46
31 48
31 50
31 51
31 53
31 54
32 34
32 38
32 41
32 43
32 45
32 47
32 48
32 50
32 51
32 54
32 56
32 57
32 58
33 34
33 35
33 36
33 37
33 42
33 44
33 45
33 47
33 48
33 49
33 52
33 53
33 56
33 57
34 35
34 37
34 40
34 45
34 46
34 49
34 51
34 53
34 54
34 55
34 57
35 36
35 37
35 44
35 45
35 48
35 49
35 50
35 52
35 55
35 59
36 41
36 42
36 43
36 45
36 47
36 49
36 50
36 51
36 54
36 56
36 57
36 59
37 39
37 40
37 41
37 43
37 44
37 45
37 49
37 50
37 53
37 55
37 56
37 58
38 40
38 41
38 46
38 47
38 48
38 49
38 53
38 54
38 56
38 59
39 40
39 42
39 43
39 46
39 49
39 52
39 53
39 55
39 58
39 59
40 41
40 42
40 45
40 46
40 47
40 48
40 51
40 52
40 53
40 54
40 57
40 59
41 42
41 44
41 45
41 46
41 47
41 48
41 49
41 50
41 51
41 52
41 57
41 59
42 43
42 45
42 47
42 48
42 50
42 55
42 58
42 59
43 44
43 46
43 47
43 48
43 50
43 52
43 59
44 45
44 46
44 47
44 48
44 49
44 50
44 52
44 53
44 55
44 57
44 58
44 59
45 46
45 48
45 50
45 51
45 52
45 53
45 54
45 57
45 59
46 47
46 54
46 55
46 56
46 57
47 49
47 52
47 55
48 52
48 58
49 50
49 51
49 53
49 54
49 56
49 57
49 59
50 52
50 54
50 55
50 56
50 57
50 59
51 52
51 53
51 55
51 58
52 55
52 58
52 59
53 54
53 55
53 56
53 58
54 55
54 58
55 58
56 58
57 59
58 59
58 20 32 50 33 6 55 11 26 56 7 36 9 57 2
28 16 19 51 8 49 43 12 24 1 41 25 27 10 23
3 45 18 14 54 44 5 53 37 52 42 39 22 29 21
4 47 40 0 13 31 30 34 46 35 15 17 59 38 48
